'hugeuniform101'
150 75 75
147
147
143
139
136
133
132
132
129
120
120
119
117
114
113
113
112
112
111
111
109
108
107
105
104
98
93
92
90
90
87
85
83
83
78
71
70
65
65
63
62
61
57
55
53
53
51
51
50
46
45
43
34
34
33
33
31
29
26
24
23
17
16
14
14
14
13
12
9
7
5
3
3
1
1
